sat-intances/9.param.solution
language ESSENCE' 1.0
letting actionFrom be [0, 2, 0, 0, 2, 2, 2, 0, 0, 2]
letting actionTo be [2, 1, 2, 2, 3, 4, 1, 2, 2, 1]
letting actionTypes be [1, 2, 1, 1, 4, 4, 2, 1, 1, 2]
letting pointers be [[0, 1, 1, 2, 3, 3, 3, 3, 4, 5, 5;int(0..10)], 
[0, 0, 1, 1, 1, 1, 1, 2, 2, 2, 3;int(0..10)];int(0..1)]
letting statePlaces be [[-1, 8, 8, 9, 5, 5, 5, 5, 3, 12, 12;int(0..10)], 
[-1, -1, -1, -1, -1, 5, 5, 5, 5, 5, 5;int(0..10)], 
[-1, -1, -1, -1, -1, -1, 5, 5, 5, 5, 5;int(0..10)];int(2..4)]
